p cnf 430 1488
-191 -23 0
-191 15 0
-191 54 0
-191 -150 0
-191 -127 0
191 23 -15 -54 150 127 0
-192 92 0
-192 180 0
-192 -65 0
-192 83 0
-192 85 0
192 -92 -180 65 -83 -85 0
-193 -18 0
-193 -120 0
-193 -102 0
-193 126 0
-193 -49 0
193 18 120 102 -126 49 0
-194 -93 0
-194 -6 0
-194 157 0
-194 175 0
-194 -128 0
194 93 6 -157 -175 128 0
-195 170 0
-195 -51 0
-195 158 0
-195 -157 0
-195 184 0
195 -170 51 -158 157 -184 0
191 192 193 194 195 0
-196 -148 0
-196 141 0
-196 -3 0
-196 -118 0
-196 161 0
196 148 -141 3 118 -161 0
-197 176 0
-197 -167 0
-197 -159 0
-197 28 0
-197 -75 0
197 -176 167 159 -28 75 0
-198 -102 0
-198 68 0
-198 -54 0
-198 187 0
-198 -183 0
198 102 -68 54 -187 183 0
-199 -102 0
-199 166 0
-199 106 0
-199 7 0
-199 56 0
199 102 -166 -106 -7 -56 0
-200 -12 0
-200 108 0
-200 127 0
-200 92 0
-200 28 0
200 12 -108 -127 -92 -28 0
196 197 198 199 200 0
-201 -8 0
-201 123 0
-201 130 0
-201 77 0
-201 25 0
201 8 -123 -130 -77 -25 0
-202 -69 0
-202 -189 0
-202 36 0
-202 4 0
-202 -112 0
202 69 189 -36 -4 112 0
-203 -164 0
-203 -64 0
-203 60 0
-203 -144 0
-203 -83 0
203 164 64 -60 144 83 0
-204 51 0
-204 27 0
-204 1 0
-204 -85 0
-204 67 0
204 -51 -27 -1 85 -67 0
-205 -184 0
-205 -140 0
-205 8 0
-205 -23 0
-205 63 0
205 184 140 -8 23 -63 0
201 202 203 204 205 0
-206 64 0
-206 118 0
-206 25 0
-206 -187 0
-206 134 0
206 -64 -118 -25 187 -134 0
-207 -52 0
-207 86 0
-207 -10 0
-207 188 0
-207 -113 0
207 52 -86 10 -188 113 0
-208 45 0
-208 -103 0
-208 -96 0
-208 -152 0
-208 -64 0
208 -45 103 96 152 64 0
-209 -133 0
-209 9 0
-209 73 0
-209 -14 0
-209 -18 0
209 133 -9 -73 14 18 0
-210 83 0
-210 -186 0
-210 -77 0
-210 110 0
-210 107 0
210 -83 186 77 -110 -107 0
206 207 208 209 210 0
-211 -184 0
-211 82 0
-211 -101 0
-211 -135 0
-211 -77 0
211 184 -82 101 135 77 0
-212 -40 0
-212 -154 0
-212 -21 0
-212 -155 0
-212 -80 0
212 40 154 21 155 80 0
-213 71 0
-213 65 0
-213 -37 0
-213 -166 0
-213 14 0
213 -71 -65 37 166 -14 0
-214 110 0
-214 132 0
-214 118 0
-214 158 0
-214 -36 0
214 -110 -132 -118 -158 36 0
-215 -2 0
-215 -106 0
-215 -85 0
-215 -123 0
-215 80 0
215 2 106 85 123 -80 0
211 212 213 214 215 0
-216 -177 0
-216 20 0
-216 -53 0
-216 101 0
-216 -44 0
216 177 -20 53 -101 44 0
-217 107 0
-217 56 0
-217 -32 0
-217 138 0
-217 7 0
217 -107 -56 32 -138 -7 0
-218 -1 0
-218 -149 0
-218 106 0
-218 137 0
-218 37 0
218 1 149 -106 -137 -37 0
-219 -131 0
-219 170 0
-219 -168 0
-219 -109 0
-219 79 0
219 131 -170 168 109 -79 0
-220 -77 0
-220 -167 0
-220 139 0
-220 -150 0
-220 -173 0
220 77 167 -139 150 173 0
216 217 218 219 220 0
-221 -48 0
-221 -124 0
-221 -26 0
-221 116 0
-221 -188 0
221 48 124 26 -116 188 0
-222 68 0
-222 -179 0
-222 -120 0
-222 19 0
-222 118 0
222 -68 179 120 -19 -118 0
-223 171 0
-223 -97 0
-223 -151 0
-223 -105 0
-223 -173 0
223 -171 97 151 105 173 0
-224 154 0
-224 61 0
-224 60 0
-224 -170 0
-224 149 0
224 -154 -61 -60 170 -149 0
-225 157 0
-225 156 0
-225 -42 0
-225 -30 0
-225 -37 0
225 -157 -156 42 30 37 0
221 222 223 224 225 0
-226 -63 0
-226 -147 0
-226 -8 0
-226 81 0
-226 -101 0
226 63 147 8 -81 101 0
-227 189 0
-227 -69 0
-227 2 0
-227 127 0
-227 143 0
227 -189 69 -2 -127 -143 0
-228 18 0
-228 137 0
-228 169 0
-228 185 0
-228 164 0
228 -18 -137 -169 -185 -164 0
-229 -156 0
-229 -12 0
-229 84 0
-229 -118 0
-229 53 0
229 156 12 -84 118 -53 0
-230 142 0
-230 -85 0
-230 43 0
-230 -32 0
-230 -155 0
230 -142 85 -43 32 155 0
226 227 228 229 230 0
-231 -73 0
-231 85 0
-231 -161 0
-231 55 0
-231 -165 0
231 73 -85 161 -55 165 0
-232 -38 0
-232 8 0
-232 -68 0
-232 -96 0
-232 -181 0
232 38 -8 68 96 181 0
-233 -51 0
-233 -131 0
-233 184 0
-233 -81 0
-233 -145 0
233 51 131 -184 81 145 0
-234 119 0
-234 117 0
-234 48 0
-234 -153 0
-234 95 0
234 -119 -117 -48 153 -95 0
-235 175 0
-235 -29 0
-235 131 0
-235 -65 0
-235 -162 0
235 -175 29 -131 65 162 0
231 232 233 234 235 0
-236 -167 0
-236 -132 0
-236 127 0
-236 12 0
-236 -189 0
236 167 132 -127 -12 189 0
-237 126 0
-237 33 0
-237 -1 0
-237 -36 0
-237 108 0
237 -126 -33 1 36 -108 0
-238 -185 0
-238 3 0
-238 -52 0
-238 58 0
-238 -136 0
238 185 -3 52 -58 136 0
-239 158 0
-239 56 0
-239 -148 0
-239 -115 0
-239 109 0
239 -158 -56 148 115 -109 0
-240 -126 0
-240 -19 0
-240 25 0
-240 -183 0
-240 -130 0
240 126 19 -25 183 130 0
236 237 238 239 240 0
-241 -146 0
-241 62 0
-241 15 0
-241 43 0
-241 -59 0
241 146 -62 -15 -43 59 0
-242 4 0
-242 -18 0
-242 -26 0
-242 -59 0
-242 145 0
242 -4 18 26 59 -145 0
-243 85 0
-243 -117 0
-243 -112 0
-243 -175 0
-243 1 0
243 -85 117 112 175 -1 0
-244 -54 0
-244 144 0
-244 -81 0
-244 -124 0
-244 -49 0
244 54 -144 81 124 49 0
-245 -43 0
-245 124 0
-245 -73 0
-245 -96 0
-245 -21 0
245 43 -124 73 96 21 0
241 242 243 244 245 0
-246 -6 0
-246 -123 0
-246 -120 0
-246 87 0
-246 -115 0
246 6 123 120 -87 115 0
-247 -25 0
-247 114 0
-247 49 0
-247 -94 0
-247 80 0
247 25 -114 -49 94 -80 0
-248 -44 0
-248 -81 0
-248 -171 0
-248 -142 0
-248 -78 0
248 44 81 171 142 78 0
-249 69 0
-249 153 0
-249 29 0
-249 179 0
-249 163 0
249 -69 -153 -29 -179 -163 0
-250 77 0
-250 22 0
-250 -106 0
-250 -94 0
-250 182 0
250 -77 -22 106 94 -182 0
246 247 248 249 250 0
-251 137 0
-251 -158 0
-251 -74 0
-251 -35 0
-251 37 0
251 -137 158 74 35 -37 0
-252 -104 0
-252 -165 0
-252 179 0
-252 -3 0
-252 -50 0
252 104 165 -179 3 50 0
-253 92 0
-253 -35 0
-253 124 0
-253 156 0
-253 -170 0
253 -92 35 -124 -156 170 0
-254 18 0
-254 17 0
-254 -81 0
-254 63 0
-254 70 0
254 -18 -17 81 -63 -70 0
-255 127 0
-255 -129 0
-255 -132 0
-255 122 0
-255 -27 0
255 -127 129 132 -122 27 0
251 252 253 254 255 0
-256 86 0
-256 18 0
-256 -87 0
-256 -85 0
-256 -184 0
256 -86 -18 87 85 184 0
-257 -30 0
-257 -38 0
-257 -129 0
-257 16 0
-257 130 0
257 30 38 129 -16 -130 0
-258 134 0
-258 -96 0
-258 103 0
-258 -106 0
-258 -88 0
258 -134 96 -103 106 88 0
-259 102 0
-259 60 0
-259 48 0
-259 139 0
-259 164 0
259 -102 -60 -48 -139 -164 0
-260 70 0
-260 -181 0
-260 -163 0
-260 162 0
-260 12 0
260 -70 181 163 -162 -12 0
256 257 258 259 260 0
-261 83 0
-261 -169 0
-261 112 0
-261 -18 0
-261 -61 0
261 -83 169 -112 18 61 0
-262 128 0
-262 140 0
-262 -169 0
-262 152 0
-262 110 0
262 -128 -140 169 -152 -110 0
-263 -184 0
-263 -32 0
-263 -158 0
-263 185 0
-263 -18 0
263 184 32 158 -185 18 0
-264 110 0
-264 48 0
-264 -101 0
-264 -120 0
-264 130 0
264 -110 -48 101 120 -130 0
-265 50 0
-265 21 0
-265 -168 0
-265 134 0
-265 -146 0
265 -50 -21 168 -134 146 0
261 262 263 264 265 0
-266 -100 0
-266 -180 0
-266 -84 0
-266 -108 0
-266 70 0
266 100 180 84 108 -70 0
-267 -174 0
-267 179 0
-267 64 0
-267 -42 0
-267 -169 0
267 174 -179 -64 42 169 0
-268 -90 0
-268 82 0
-268 17 0
-268 -123 0
-268 152 0
268 90 -82 -17 123 -152 0
-269 -141 0
-269 -117 0
-269 166 0
-269 -7 0
-269 87 0
269 141 117 -166 7 -87 0
-270 101 0
-270 -108 0
-270 -91 0
-270 160 0
-270 112 0
270 -101 108 91 -160 -112 0
266 267 268 269 270 0
-271 -167 0
-271 -97 0
-271 -53 0
-271 -48 0
-271 77 0
271 167 97 53 48 -77 0
-272 -32 0
-272 70 0
-272 179 0
-272 -102 0
-272 -172 0
272 32 -70 -179 102 172 0
-273 -42 0
-273 150 0
-273 41 0
-273 101 0
-273 148 0
273 42 -150 -41 -101 -148 0
-274 -102 0
-274 15 0
-274 64 0
-274 -54 0
-274 166 0
274 102 -15 -64 54 -166 0
-275 138 0
-275 62 0
-275 13 0
-275 -23 0
-275 51 0
275 -138 -62 -13 23 -51 0
271 272 273 274 275 0
-276 164 0
-276 46 0
-276 -66 0
-276 -108 0
-276 -94 0
276 -164 -46 66 108 94 0
-277 51 0
-277 182 0
-277 91 0
-277 9 0
-277 59 0
277 -51 -182 -91 -9 -59 0
-278 -45 0
-278 -63 0
-278 -27 0
-278 -29 0
-278 -47 0
278 45 63 27 29 47 0
-279 -24 0
-279 152 0
-279 92 0
-279 -45 0
-279 114 0
279 24 -152 -92 45 -114 0
-280 102 0
-280 -145 0
-280 -160 0
-280 -165 0
-280 -172 0
280 -102 145 160 165 172 0
276 277 278 279 280 0
-281 170 0
-281 -88 0
-281 -26 0
-281 176 0
-281 114 0
281 -170 88 26 -176 -114 0
-282 -153 0
-282 -71 0
-282 -72 0
-282 133 0
-282 -11 0
282 153 71 72 -133 11 0
-283 -92 0
-283 -68 0
-283 -2 0
-283 -103 0
-283 -144 0
283 92 68 2 103 144 0
-284 112 0
-284 -72 0
-284 -62 0
-284 167 0
-284 -55 0
284 -112 72 62 -167 55 0
-285 -60 0
-285 108 0
-285 -36 0
-285 99 0
-285 43 0
285 60 -108 36 -99 -43 0
281 282 283 284 285 0
-286 -169 0
-286 42 0
-286 -129 0
-286 128 0
-286 -5 0
286 169 -42 129 -128 5 0
-287 1 0
-287 -189 0
-287 -75 0
-287 -151 0
-287 -84 0
287 -1 189 75 151 84 0
-288 43 0
-288 68 0
-288 -184 0
-288 119 0
-288 2 0
288 -43 -68 184 -119 -2 0
-289 45 0
-289 -49 0
-289 -11 0
-289 143 0
-289 -34 0
289 -45 49 11 -143 34 0
-290 90 0
-290 -176 0
-290 -183 0
-290 28 0
-290 163 0
290 -90 176 183 -28 -163 0
286 287 288 289 290 0
-291 80 0
-291 181 0
-291 90 0
-291 65 0
-291 164 0
291 -80 -181 -90 -65 -164 0
-292 -177 0
-292 -101 0
-292 73 0
-292 -80 0
-292 -11 0
292 177 101 -73 80 11 0
-293 134 0
-293 110 0
-293 125 0
-293 -48 0
-293 38 0
293 -134 -110 -125 48 -38 0
-294 22 0
-294 49 0
-294 95 0
-294 157 0
-294 -57 0
294 -22 -49 -95 -157 57 0
-295 -127 0
-295 100 0
-295 -23 0
-295 -175 0
-295 -149 0
295 127 -100 23 175 149 0
291 292 293 294 295 0
-296 -11 0
-296 160 0
-296 5 0
-296 -157 0
-296 -51 0
296 11 -160 -5 157 51 0
-297 -68 0
-297 140 0
-297 -118 0
-297 112 0
-297 150 0
297 68 -140 118 -112 -150 0
-298 -44 0
-298 178 0
-298 -28 0
-298 -96 0
-298 -77 0
298 44 -178 28 96 77 0
-299 -38 0
-299 111 0
-299 186 0
-299 -96 0
-299 47 0
299 38 -111 -186 96 -47 0
-300 63 0
-300 -131 0
-300 -66 0
-300 -135 0
-300 125 0
300 -63 131 66 135 -125 0
296 297 298 299 300 0
-301 -146 0
-301 -125 0
-301 163 0
-301 64 0
-301 -131 0
301 146 125 -163 -64 131 0
-302 120 0
-302 56 0
-302 163 0
-302 65 0
-302 2 0
302 -120 -56 -163 -65 -2 0
-303 132 0
-303 150 0
-303 95 0
-303 -144 0
-303 -168 0
303 -132 -150 -95 144 168 0
-304 -64 0
-304 148 0
-304 -117 0
-304 -80 0
-304 -7 0
304 64 -148 117 80 7 0
-305 101 0
-305 -142 0
-305 126 0
-305 -39 0
-305 -85 0
305 -101 142 -126 39 85 0
301 302 303 304 305 0
-306 167 0
-306 -181 0
-306 -119 0
-306 -107 0
-306 -128 0
306 -167 181 119 107 128 0
-307 65 0
-307 -83 0
-307 176 0
-307 134 0
-307 -187 0
307 -65 83 -176 -134 187 0
-308 9 0
-308 38 0
-308 -71 0
-308 -81 0
-308 66 0
308 -9 -38 71 81 -66 0
-309 -80 0
-309 62 0
-309 -13 0
-309 120 0
-309 60 0
309 80 -62 13 -120 -60 0
-310 166 0
-310 89 0
-310 -96 0
-310 -34 0
-310 -38 0
310 -166 -89 96 34 38 0
306 307 308 309 310 0
-311 114 0
-311 152 0
-311 188 0
-311 -44 0
-311 -95 0
311 -114 -152 -188 44 95 0
-312 68 0
-312 89 0
-312 -125 0
-312 39 0
-312 102 0
312 -68 -89 125 -39 -102 0
-313 -62 0
-313 -84 0
-313 -24 0
-313 72 0
-313 -121 0
313 62 84 24 -72 121 0
-314 171 0
-314 177 0
-314 -71 0
-314 144 0
-314 89 0
314 -171 -177 71 -144 -89 0
-315 86 0
-315 -163 0
-315 176 0
-315 -50 0
-315 -77 0
315 -86 163 -176 50 77 0
311 312 313 314 315 0
-316 178 0
-316 20 0
-316 24 0
-316 126 0
-316 -121 0
316 -178 -20 -24 -126 121 0
-317 -144 0
-317 137 0
-317 143 0
-317 87 0
-317 -103 0
317 144 -137 -143 -87 103 0
-318 2 0
-318 174 0
-318 -28 0
-318 -98 0
-318 -111 0
318 -2 -174 28 98 111 0
-319 127 0
-319 130 0
-319 -85 0
-319 10 0
-319 -137 0
319 -127 -130 85 -10 137 0
-320 -130 0
-320 -75 0
-320 -84 0
-320 25 0
-320 -19 0
320 130 75 84 -25 19 0
316 317 318 319 320 0
-321 73 0
-321 41 0
-321 -183 0
-321 -131 0
-321 146 0
321 -73 -41 183 131 -146 0
-322 -30 0
-322 -71 0
-322 -97 0
-322 -50 0
-322 -102 0
322 30 71 97 50 102 0
-323 185 0
-323 112 0
-323 35 0
-323 3 0
-323 178 0
323 -185 -112 -35 -3 -178 0
-324 -132 0
-324 57 0
-324 -44 0
-324 184 0
-324 -49 0
324 132 -57 44 -184 49 0
-325 19 0
-325 -190 0
-325 -128 0
-325 70 0
-325 -40 0
325 -19 190 128 -70 40 0
321 322 323 324 325 0
-326 33 0
-326 -21 0
-326 85 0
-326 -133 0
-326 -98 0
326 -33 21 -85 133 98 0
-327 127 0
-327 89 0
-327 132 0
-327 -38 0
-327 -140 0
327 -127 -89 -132 38 140 0
-328 -85 0
-328 29 0
-328 133 0
-328 50 0
-328 -170 0
328 85 -29 -133 -50 170 0
-329 -45 0
-329 95 0
-329 34 0
-329 -2 0
-329 81 0
329 45 -95 -34 2 -81 0
-330 -27 0
-330 -183 0
-330 -14 0
-330 160 0
-330 -147 0
330 27 183 14 -160 147 0
326 327 328 329 330 0
-331 184 0
-331 152 0
-331 -144 0
-331 -135 0
-331 -107 0
331 -184 -152 144 135 107 0
-332 -28 0
-332 171 0
-332 -156 0
-332 160 0
-332 55 0
332 28 -171 156 -160 -55 0
-333 -118 0
-333 180 0
-333 1 0
-333 -42 0
-333 136 0
333 118 -180 -1 42 -136 0
-334 179 0
-334 152 0
-334 -74 0
-334 116 0
-334 168 0
334 -179 -152 74 -116 -168 0
-335 142 0
-335 -14 0
-335 51 0
-335 -156 0
-335 -79 0
335 -142 14 -51 156 79 0
331 332 333 334 335 0
-336 166 0
-336 34 0
-336 -174 0
-336 -41 0
-336 -15 0
336 -166 -34 174 41 15 0
-337 -111 0
-337 73 0
-337 158 0
-337 -134 0
-337 42 0
337 111 -73 -158 134 -42 0
-338 117 0
-338 -160 0
-338 -93 0
-338 -77 0
-338 12 0
338 -117 160 93 77 -12 0
-339 -102 0
-339 108 0
-339 154 0
-339 30 0
-339 14 0
339 102 -108 -154 -30 -14 0
-340 -173 0
-340 14 0
-340 -55 0
-340 12 0
-340 181 0
340 173 -14 55 -12 -181 0
336 337 338 339 340 0
-341 -131 0
-341 84 0
-341 165 0
-341 136 0
-341 -140 0
341 131 -84 -165 -136 140 0
-342 -28 0
-342 33 0
-342 -41 0
-342 58 0
-342 -59 0
342 28 -33 41 -58 59 0
-343 -115 0
-343 -168 0
-343 -73 0
-343 -129 0
-343 -163 0
343 115 168 73 129 163 0
-344 111 0
-344 33 0
-344 -147 0
-344 39 0
-344 55 0
344 -111 -33 147 -39 -55 0
-345 -163 0
-345 152 0
-345 -110 0
-345 -150 0
-345 84 0
345 163 -152 110 150 -84 0
341 342 343 344 345 0
-346 -173 0
-346 -141 0
-346 -45 0
-346 -74 0
-346 136 0
346 173 141 45 74 -136 0
-347 88 0
-347 -42 0
-347 37 0
-347 65 0
-347 -127 0
347 -88 42 -37 -65 127 0
-348 108 0
-348 -126 0
-348 93 0
-348 39 0
-348 -12 0
348 -108 126 -93 -39 12 0
-349 -20 0
-349 -41 0
-349 4 0
-349 -137 0
-349 89 0
349 20 41 -4 137 -89 0
-350 36 0
-350 136 0
-350 81 0
-350 12 0
-350 -104 0
350 -36 -136 -81 -12 104 0
346 347 348 349 350 0
-351 184 0
-351 119 0
-351 -43 0
-351 -177 0
-351 -135 0
351 -184 -119 43 177 135 0
-352 -7 0
-352 165 0
-352 137 0
-352 -159 0
-352 46 0
352 7 -165 -137 159 -46 0
-353 -75 0
-353 -1 0
-353 150 0
-353 -106 0
-353 -94 0
353 75 1 -150 106 94 0
-354 142 0
-354 157 0
-354 116 0
-354 -62 0
-354 -60 0
354 -142 -157 -116 62 60 0
-355 127 0
-355 110 0
-355 -5 0
-355 -163 0
-355 105 0
355 -127 -110 5 163 -105 0
351 352 353 354 355 0
-356 107 0
-356 -180 0
-356 -176 0
-356 121 0
-356 96 0
356 -107 180 176 -121 -96 0
-357 77 0
-357 107 0
-357 164 0
-357 97 0
-357 104 0
357 -77 -107 -164 -97 -104 0
-358 8 0
-358 -172 0
-358 25 0
-358 140 0
-358 3 0
358 -8 172 -25 -140 -3 0
-359 176 0
-359 -170 0
-359 157 0
-359 23 0
-359 181 0
359 -176 170 -157 -23 -181 0
-360 58 0
-360 4 0
-360 -154 0
-360 -2 0
-360 -92 0
360 -58 -4 154 2 92 0
356 357 358 359 360 0
-361 5 0
-361 106 0
-361 -108 0
-361 -72 0
-361 -98 0
361 -5 -106 108 72 98 0
-362 44 0
-362 -152 0
-362 180 0
-362 189 0
-362 51 0
362 -44 152 -180 -189 -51 0
-363 -103 0
-363 -149 0
-363 -56 0
-363 -33 0
-363 24 0
363 103 149 56 33 -24 0
-364 -184 0
-364 25 0
-364 -168 0
-364 -85 0
-364 55 0
364 184 -25 168 85 -55 0
-365 -90 0
-365 -83 0
-365 -35 0
-365 92 0
-365 82 0
365 90 83 35 -92 -82 0
361 362 363 364 365 0
-366 -8 0
-366 -24 0
-366 153 0
-366 112 0
-366 -169 0
366 8 24 -153 -112 169 0
-367 60 0
-367 -154 0
-367 -146 0
-367 -187 0
-367 105 0
367 -60 154 146 187 -105 0
-368 -161 0
-368 12 0
-368 182 0
-368 2 0
-368 50 0
368 161 -12 -182 -2 -50 0
-369 179 0
-369 64 0
-369 101 0
-369 -30 0
-369 -49 0
369 -179 -64 -101 30 49 0
-370 41 0
-370 -45 0
-370 -86 0
-370 -18 0
-370 -141 0
370 -41 45 86 18 141 0
366 367 368 369 370 0
-371 -142 0
-371 152 0
-371 112 0
-371 44 0
-371 75 0
371 142 -152 -112 -44 -75 0
-372 -178 0
-372 -35 0
-372 90 0
-372 89 0
-372 -118 0
372 178 35 -90 -89 118 0
-373 110 0
-373 -22 0
-373 -32 0
-373 23 0
-373 -104 0
373 -110 22 32 -23 104 0
-374 -105 0
-374 -151 0
-374 129 0
-374 86 0
-374 55 0
374 105 151 -129 -86 -55 0
-375 -181 0
-375 -99 0
-375 -165 0
-375 38 0
-375 175 0
375 181 99 165 -38 -175 0
371 372 373 374 375 0
-376 -190 0
-376 11 0
-376 1 0
-376 42 0
-376 147 0
376 190 -11 -1 -42 -147 0
-377 28 0
-377 36 0
-377 -73 0
-377 -12 0
-377 17 0
377 -28 -36 73 12 -17 0
-378 -101 0
-378 -10 0
-378 49 0
-378 -71 0
-378 -119 0
378 101 10 -49 71 119 0
-379 -158 0
-379 77 0
-379 -190 0
-379 41 0
-379 -30 0
379 158 -77 190 -41 30 0
-380 2 0
-380 157 0
-380 65 0
-380 55 0
-380 -134 0
380 -2 -157 -65 -55 134 0
376 377 378 379 380 0
-381 118 0
-381 -94 0
-381 -48 0
-381 -171 0
-381 155 0
381 -118 94 48 171 -155 0
-382 -20 0
-382 -79 0
-382 -25 0
-382 -179 0
-382 -22 0
382 20 79 25 179 22 0
-383 76 0
-383 -37 0
-383 184 0
-383 188 0
-383 -111 0
383 -76 37 -184 -188 111 0
-384 -139 0
-384 136 0
-384 -40 0
-384 -13 0
-384 20 0
384 139 -136 40 13 -20 0
-385 -12 0
-385 106 0
-385 28 0
-385 78 0
-385 -112 0
385 12 -106 -28 -78 112 0
381 382 383 384 385 0
-386 120 0
-386 -161 0
-386 4 0
-386 15 0
-386 44 0
386 -120 161 -4 -15 -44 0
-387 -79 0
-387 82 0
-387 -18 0
-387 -57 0
-387 -109 0
387 79 -82 18 57 109 0
-388 29 0
-388 175 0
-388 53 0
-388 -127 0
-388 -135 0
388 -29 -175 -53 127 135 0
-389 -50 0
-389 103 0
-389 -101 0
-389 162 0
-389 -171 0
389 50 -103 101 -162 171 0
-390 -36 0
-390 -27 0
-390 -151 0
-390 -163 0
-390 -133 0
390 36 27 151 163 133 0
386 387 388 389 390 0
-391 -33 0
-391 -69 0
-391 116 0
-391 70 0
-391 51 0
391 33 69 -116 -70 -51 0
-392 178 0
-392 95 0
-392 19 0
-392 157 0
-392 1 0
392 -178 -95 -19 -157 -1 0
-393 17 0
-393 -82 0
-393 171 0
-393 22 0
-393 42 0
393 -17 82 -171 -22 -42 0
-394 -55 0
-394 107 0
-394 -173 0
-394 -116 0
-394 -104 0
394 55 -107 173 116 104 0
-395 -174 0
-395 -45 0
-395 92 0
-395 142 0
-395 -86 0
395 174 45 -92 -142 86 0
391 392 393 394 395 0
-396 -99 0
-396 46 0
-396 -107 0
-396 -40 0
-396 -124 0
396 99 -46 107 40 124 0
-397 112 0
-397 64 0
-397 13 0
-397 -28 0
-397 57 0
397 -112 -64 -13 28 -57 0
-398 98 0
-398 148 0
-398 -125 0
-398 -24 0
-398 -189 0
398 -98 -148 125 24 189 0
-399 -66 0
-399 -140 0
-399 97 0
-399 178 0
-399 46 0
399 66 140 -97 -178 -46 0
-400 165 0
-400 -123 0
-400 -30 0
-400 61 0
-400 23 0
400 -165 123 30 -61 -23 0
396 397 398 399 400 0
-401 -175 0
-401 168 0
-401 79 0
-401 48 0
-401 -113 0
401 175 -168 -79 -48 113 0
-402 -111 0
-402 -1 0
-402 -150 0
-402 -85 0
-402 189 0
402 111 1 150 85 -189 0
-403 163 0
-403 153 0
-403 136 0
-403 -52 0
-403 -85 0
403 -163 -153 -136 52 85 0
-404 -177 0
-404 -69 0
-404 -186 0
-404 -51 0
-404 64 0
404 177 69 186 51 -64 0
-405 174 0
-405 140 0
-405 -52 0
-405 20 0
-405 -108 0
405 -174 -140 52 -20 108 0
401 402 403 404 405 0
-406 -133 0
-406 127 0
-406 -114 0
-406 -2 0
-406 -128 0
406 133 -127 114 2 128 0
-407 70 0
-407 -40 0
-407 -166 0
-407 -126 0
-407 10 0
407 -70 40 166 126 -10 0
-408 -77 0
-408 -181 0
-408 -33 0
-408 147 0
-408 -25 0
408 77 181 33 -147 25 0
-409 31 0
-409 -25 0
-409 172 0
-409 -178 0
-409 -157 0
409 -31 25 -172 178 157 0
-410 -89 0
-410 -24 0
-410 -28 0
-410 -66 0
-410 164 0
410 89 24 28 66 -164 0
406 407 408 409 410 0
-411 -163 0
-411 -26 0
-411 -62 0
-411 -53 0
-411 18 0
411 163 26 62 53 -18 0
-412 53 0
-412 -86 0
-412 -110 0
-412 -126 0
-412 134 0
412 -53 86 110 126 -134 0
-413 98 0
-413 -156 0
-413 72 0
-413 -30 0
-413 -76 0
413 -98 156 -72 30 76 0
-414 -169 0
-414 -85 0
-414 50 0
-414 -49 0
-414 184 0
414 169 85 -50 49 -184 0
-415 9 0
-415 -93 0
-415 189 0
-415 -22 0
-415 86 0
415 -9 93 -189 22 -86 0
411 412 413 414 415 0
-416 66 0
-416 -33 0
-416 -13 0
-416 73 0
-416 90 0
416 -66 33 13 -73 -90 0
-417 179 0
-417 128 0
-417 64 0
-417 139 0
-417 -72 0
417 -179 -128 -64 -139 72 0
-418 -131 0
-418 49 0
-418 -160 0
-418 -5 0
-418 -104 0
418 131 -49 160 5 104 0
-419 -181 0
-419 -129 0
-419 -170 0
-419 -190 0
-419 132 0
419 181 129 170 190 -132 0
-420 -188 0
-420 27 0
-420 -171 0
-420 -190 0
-420 -20 0
420 188 -27 171 190 20 0
416 417 418 419 420 0
-421 178 0
-421 -177 0
-421 18 0
-421 -136 0
-421 78 0
421 -178 177 -18 136 -78 0
-422 -44 0
-422 -166 0
-422 -50 0
-422 129 0
-422 64 0
422 44 166 50 -129 -64 0
-423 33 0
-423 13 0
-423 57 0
-423 183 0
-423 -145 0
423 -33 -13 -57 -183 145 0
-424 -32 0
-424 151 0
-424 -88 0
-424 -100 0
-424 -47 0
424 32 -151 88 100 47 0
-425 119 0
-425 57 0
-425 -183 0
-425 -98 0
-425 -84 0
425 -119 -57 183 98 84 0
421 422 423 424 425 0
-426 -32 0
-426 137 0
-426 115 0
-426 20 0
-426 -89 0
426 32 -137 -115 -20 89 0
-427 -125 0
-427 50 0
-427 -186 0
-427 -44 0
-427 12 0
427 125 -50 186 44 -12 0
-428 -130 0
-428 -135 0
-428 126 0
-428 -168 0
-428 -6 0
428 130 135 -126 168 6 0
-429 -64 0
-429 100 0
-429 135 0
-429 -26 0
-429 68 0
429 64 -100 -135 26 -68 0
-430 -108 0
-430 95 0
-430 -161 0
-430 -116 0
-430 -170 0
430 108 -95 161 116 170 0
426 427 428 429 430 0
